NAME          DCAP_2_4_3_500_SS199
ROWS
 N  OBJ
 L  CON1
 L  CON2
 L  CON3
 L  CON4
 L  CON5
 L  CON6
 L  CON7
 L  CON8
 L  CON9
 L  CON10
 L  CON11
 L  CON12
 E  CON13
 E  CON14
 E  CON15
 E  CON16
 E  CON17
 E  CON18
 E  CON19
 E  CON20
 E  CON21
 E  CON22
 E  CON23
 E  CON24
COLUMNS
    x[1,1]    OBJ       6.180167      CON1      1.000000    
    x[1,1]    CON7      -1.000000     CON8      -1.000000   
    x[1,1]    CON9      -1.000000   
    x[1,2]    OBJ       6.563535      CON2      1.000000    
    x[1,2]    CON8      -1.000000     CON9      -1.000000   
    x[1,3]    OBJ       7.443064      CON3      1.000000    
    x[1,3]    CON9      -1.000000   
    x[2,1]    OBJ       6.732585      CON4      1.000000    
    x[2,1]    CON10     -1.000000     CON11     -1.000000   
    x[2,1]    CON12     -1.000000   
    x[2,2]    OBJ       5.039546      CON5      1.000000    
    x[2,2]    CON11     -1.000000     CON12     -1.000000   
    x[2,3]    OBJ       6.054841      CON6      1.000000    
    x[2,3]    CON12     -1.000000   
    MARKER    'MARKER'                'INTORG'
    u[1,1]    OBJ       48.076654     CON1      -1.000000   
    u[1,2]    OBJ       20.066487     CON2      -1.000000   
    u[1,3]    OBJ       32.230043     CON3      -1.000000   
    u[2,1]    OBJ       49.996186     CON4      -1.000000   
    u[2,2]    OBJ       49.466655     CON5      -1.000000   
    u[2,3]    OBJ       27.484319     CON6      -1.000000   
    y[1,1,1]  OBJ       5.928497      CON7      1.235498    
    y[1,1,1]  CON13     1.000000    
    y[1,1,2]  OBJ       9.008644      CON8      0.925628    
    y[1,1,2]  CON14     1.000000    
    y[1,1,3]  OBJ       8.325256      CON9      1.451672    
    y[1,1,3]  CON15     1.000000    
    y[1,2,1]  OBJ       7.630743      CON7      1.357985    
    y[1,2,1]  CON16     1.000000    
    y[1,2,2]  OBJ       7.367292      CON8      0.732477    
    y[1,2,2]  CON17     1.000000    
    y[1,2,3]  OBJ       5.238042      CON9      1.421060    
    y[1,2,3]  CON18     1.000000    
    y[1,3,1]  OBJ       9.189699      CON7      1.072413    
    y[1,3,1]  CON19     1.000000    
    y[1,3,2]  OBJ       5.821745      CON8      0.556386    
    y[1,3,2]  CON20     1.000000    
    y[1,3,3]  OBJ       5.423534      CON9      0.830658    
    y[1,3,3]  CON21     1.000000    
    y[1,4,1]  OBJ       6.368887      CON7      0.687187    
    y[1,4,1]  CON22     1.000000    
    y[1,4,2]  OBJ       6.873369      CON8      0.691178    
    y[1,4,2]  CON23     1.000000    
    y[1,4,3]  OBJ       8.586672      CON9      1.486742    
    y[1,4,3]  CON24     1.000000    
    y[2,1,1]  OBJ       6.430983      CON10     1.235498    
    y[2,1,1]  CON13     1.000000    
    y[2,1,2]  OBJ       9.104507      CON11     0.925628    
    y[2,1,2]  CON14     1.000000    
    y[2,1,3]  OBJ       9.665635      CON12     1.451672    
    y[2,1,3]  CON15     1.000000    
    y[2,2,1]  OBJ       9.353823      CON10     1.357985    
    y[2,2,1]  CON16     1.000000    
    y[2,2,2]  OBJ       7.252880      CON11     0.732477    
    y[2,2,2]  CON17     1.000000    
    y[2,2,3]  OBJ       6.229824      CON12     1.421060    
    y[2,2,3]  CON18     1.000000    
    y[2,3,1]  OBJ       9.511510      CON10     1.072413    
    y[2,3,1]  CON19     1.000000    
    y[2,3,2]  OBJ       9.514641      CON11     0.556386    
    y[2,3,2]  CON20     1.000000    
    y[2,3,3]  OBJ       8.433261      CON12     0.830658    
    y[2,3,3]  CON21     1.000000    
    y[2,4,1]  OBJ       8.380724      CON10     0.687187    
    y[2,4,1]  CON22     1.000000    
    y[2,4,2]  OBJ       6.601679      CON11     0.691178    
    y[2,4,2]  CON23     1.000000    
    y[2,4,3]  OBJ       9.076514      CON12     1.486742    
    y[2,4,3]  CON24     1.000000    
    z[1,1]    OBJ       571.114567    CON13     1.000000    
    z[1,2]    OBJ       756.755098    CON14     1.000000    
    z[1,3]    OBJ       952.275194    CON15     1.000000    
    z[2,1]    OBJ       594.794917    CON16     1.000000    
    z[2,2]    OBJ       830.840878    CON17     1.000000    
    z[2,3]    OBJ       681.249262    CON18     1.000000    
    z[3,1]    OBJ       900.516907    CON19     1.000000    
    z[3,2]    OBJ       633.512272    CON20     1.000000    
    z[3,3]    OBJ       581.748211    CON21     1.000000    
    z[4,1]    OBJ       644.053451    CON22     1.000000    
    z[4,2]    OBJ       896.064005    CON23     1.000000    
    z[4,3]    OBJ       504.068345    CON24     1.000000    
    MARKER    'MARKER'                 'INTEND'
RHS
    RHS       CON1      -0.000000     CON2      -0.000000   
    RHS       CON3      -0.000000     CON4      -0.000000   
    RHS       CON5      -0.000000     CON6      -0.000000   
    RHS       CON7      -0.000000     CON8      -0.000000   
    RHS       CON9      -0.000000     CON10     -0.000000   
    RHS       CON11     -0.000000     CON12     -0.000000   
    RHS       CON13     1.000000      CON14     1.000000    
    RHS       CON15     1.000000      CON16     1.000000    
    RHS       CON17     1.000000      CON18     1.000000    
    RHS       CON19     1.000000      CON20     1.000000    
    RHS       CON21     1.000000      CON22     1.000000    
    RHS       CON23     1.000000      CON24     1.000000    
BOUNDS
 BV BOUND     u[1,1]  
 BV BOUND     u[1,2]  
 BV BOUND     u[1,3]  
 BV BOUND     u[2,1]  
 BV BOUND     u[2,2]  
 BV BOUND     u[2,3]  
 BV BOUND     y[1,1,1]
 BV BOUND     y[1,1,2]
 BV BOUND     y[1,1,3]
 BV BOUND     y[1,2,1]
 BV BOUND     y[1,2,2]
 BV BOUND     y[1,2,3]
 BV BOUND     y[1,3,1]
 BV BOUND     y[1,3,2]
 BV BOUND     y[1,3,3]
 BV BOUND     y[1,4,1]
 BV BOUND     y[1,4,2]
 BV BOUND     y[1,4,3]
 BV BOUND     y[2,1,1]
 BV BOUND     y[2,1,2]
 BV BOUND     y[2,1,3]
 BV BOUND     y[2,2,1]
 BV BOUND     y[2,2,2]
 BV BOUND     y[2,2,3]
 BV BOUND     y[2,3,1]
 BV BOUND     y[2,3,2]
 BV BOUND     y[2,3,3]
 BV BOUND     y[2,4,1]
 BV BOUND     y[2,4,2]
 BV BOUND     y[2,4,3]
 BV BOUND     z[1,1]  
 BV BOUND     z[1,2]  
 BV BOUND     z[1,3]  
 BV BOUND     z[2,1]  
 BV BOUND     z[2,2]  
 BV BOUND     z[2,3]  
 BV BOUND     z[3,1]  
 BV BOUND     z[3,2]  
 BV BOUND     z[3,3]  
 BV BOUND     z[4,1]  
 BV BOUND     z[4,2]  
 BV BOUND     z[4,3]  
ENDATA
